c This is a CNF SAT formula in the DIMACS CNF format,
c produced with the bc2cnf translator by Tommi Junttila;
c see http://users.ics.aalto.fi/tjunttil/circuits/index.html
c phi_Gamma <-> 1
c phi_T_transitions <-> 1
c phi_T_transitions_consistency <-> 1
c phi_T <-> 1
c phi_sim_leaves <-> 1
c phi_sim_transition <-> 1
c phi_sim <-> 1
c FORMULA <-> 1
c pi_0_1 <-> 2
c pi_0_12 <-> 2
c pi_0_14 <-> 2
c pi_0_24 <-> 2
c pi_0_27 <-> 2
c pi_0_28 <-> 2
c pi_0_26 <-> 13
c pi_0_13 <-> 26
c pi_0_22 <-> 26
c pi_0_25 <-> 26
c pi_0_23 <-> 32
c pi_0_17 <-> 33
c pi_0_19 <-> 33
c pi_0_21 <-> 33
c pi_0_16 <-> 35
c pi_0_20 <-> 35
c pi_0_10 <-> 36
c pi_0_18 <-> 36
c pi_0_15 <-> 38
c pi_0_11 <-> 42
c pi_0_9 <-> 44
c pi_0_8 <-> 49
c pi_0_7 <-> 54
c pi_0_6 <-> 57
c pi_0_5 <-> 59
c pi_0_4 <-> 65
c pi_0_3 <-> 69
c pi_0_2 <-> 70
c pi_0_0 <-> 71
c alp_approved_1_0 <-> 74
c alp_approved_1_1 <-> 74
c alp_approved_1_2 <-> 74
c alp_approved_1_3 <-> 74
c alp_approved_0_4 <-> 74
c alp_approved_1_5 <-> 74
c alp_approved_0_6 <-> 74
c alp_approved_1_7 <-> 74
c alp_approved_0_8 <-> 74
c alp_approved_1_9 <-> 74
c alp_approved_1_10 <-> 74
c alp_approved_1_11 <-> 74
c alp_approved_1_12 <-> 74
c alp_approved_1_13 <-> 74
c alp_approved_1_14 <-> 74
c alp_approved_1_15 <-> 74
c alp_approved_1_16 <-> 74
c alp_approved_0_17 <-> 74
c alp_approved_1_18 <-> 74
c alp_approved_0_19 <-> 74
c alp_approved_1_20 <-> 74
c alp_approved_0_21 <-> 74
c alp_approved_1_22 <-> 74
c alp_approved_1_23 <-> 74
c alp_approved_1_24 <-> 74
c alp_approved_1_25 <-> 74
c alp_approved_0_26 <-> 74
c alp_approved_1_27 <-> 74
c alp_approved_1_28 <-> 74
c alp_approved_1_4 <-> 75
c alp_approved_1_6 <-> 75
c alp_approved_1_8 <-> 75
c alp_approved_1_17 <-> 75
c alp_approved_1_19 <-> 75
c alp_approved_1_21 <-> 75
c alp_approved_1_26 <-> 75
c approved_P100 <-> 75
c alp_approved_0_0 <-> 76
c alp_approved_0_1 <-> 76
c alp_approved_0_2 <-> 76
c alp_approved_0_3 <-> 76
c alp_approved_0_5 <-> 76
c alp_approved_0_7 <-> 76
c alp_approved_0_9 <-> 76
c alp_approved_0_10 <-> 76
c alp_approved_0_11 <-> 76
c alp_approved_0_12 <-> 76
c alp_approved_0_13 <-> 76
c alp_approved_0_14 <-> 76
c alp_approved_0_15 <-> 76
c alp_approved_0_16 <-> 76
c alp_approved_0_18 <-> 76
c alp_approved_0_20 <-> 76
c alp_approved_0_22 <-> 76
c alp_approved_0_23 <-> 76
c alp_approved_0_24 <-> 76
c alp_approved_0_25 <-> 76
c alp_approved_0_27 <-> 76
c alp_approved_0_28 <-> 76
c approved_P0 <-> 76
c tau_0_3_approved_1 <-> 103
c tau_0_3_approved_0 <-> 104
c tau_0_2_approved_1 <-> 105
c tau_0_2_approved_0 <-> 106
c tau_0_1_approved_1 <-> 107
c tau_0_1_approved_0 <-> 108
c tau_0_0_approved_1 <-> 109
c tau_0_0_approved_0 <-> 110
c phi_T_feature_det <-> 111
c lam_0_credit_score <-> 124
c lam_0_dependents <-> 126
c lam_0_monthly_income <-> 128
c lam_0_age <-> 129
p wcnf 129 396 30  
30 1 0
30 2 -3 0
30 2 -4 0
30 -2 4 3 0
1 2 0
30 -3 8 0
30 -3 124 0
30 3 -124 -8 0
30 4 -5 0
30 4 -6 0
30 -4 6 5 0
30 -5 8 0
30 -5 126 0
30 5 -126 -8 0
30 6 -7 0
30 6 -10 0
30 -6 10 7 0
30 -7 8 0
30 -7 128 0
30 7 -128 -8 0
30 -8 -107 0
30 -8 9 0
30 8 -9 107 0
30 9 108 0
30 9 -76 0
30 -9 76 -108 0
30 -10 11 0
30 -10 129 0
30 10 -129 -11 0
30 -11 -109 0
30 -11 12 0
30 11 -12 109 0
30 12 110 0
30 12 -76 0
30 -12 76 -110 0
30 13 -14 0
30 13 -15 0
30 -13 15 14 0
1 13 0
30 -14 21 0
30 -14 124 0
30 14 -124 -21 0
30 15 -16 0
30 15 -19 0
30 -15 19 16 0
30 -16 17 0
30 -16 126 0
30 16 -126 -17 0
30 -17 -108 0
30 -17 18 0
30 17 -18 108 0
30 18 107 0
30 18 -75 0
30 -18 75 -107 0
30 19 -20 0
30 19 -23 0
30 -19 23 20 0
30 -20 21 0
30 -20 128 0
30 20 -128 -21 0
30 -21 -110 0
30 -21 22 0
30 21 -22 110 0
30 22 109 0
30 22 -75 0
30 -22 75 -109 0
30 -23 24 0
30 -23 129 0
30 23 -129 -24 0
30 -24 25 0
30 -24 -104 0
30 24 104 -25 0
30 25 103 0
30 25 -75 0
30 -25 75 -103 0
30 26 -27 0
30 26 -30 0
30 -26 30 27 0
1 26 0
30 -27 28 0
30 -27 124 0
30 27 -124 -28 0
30 -28 -105 0
30 -28 29 0
30 28 -29 105 0
30 29 106 0
30 29 -76 0
30 -29 76 -106 0
30 30 -6 0
30 30 -31 0
30 -30 31 6 0
30 -31 11 0
30 -31 126 0
30 31 -126 -11 0
30 32 -3 0
30 32 -30 0
30 -32 30 3 0
1 32 0
30 33 -15 0
30 33 -34 0
30 -33 34 15 0
1 33 0
30 -34 17 0
30 -34 124 0
30 34 -124 -17 0
30 35 -4 0
30 35 -27 0
30 -35 27 4 0
1 35 0
30 36 -30 0
30 36 -37 0
30 -36 37 30 0
1 36 0
30 -37 11 0
30 -37 124 0
30 37 -124 -11 0
30 38 -37 0
30 38 -39 0
30 -38 39 37 0
1 38 0
30 39 -31 0
30 39 -40 0
30 -39 40 31 0
30 40 -7 0
30 40 -41 0
30 -40 41 7 0
30 -41 8 0
30 -41 129 0
30 41 -129 -8 0
30 42 -3 0
30 42 -43 0
30 -42 43 3 0
1 42 0
30 43 -5 0
30 43 -40 0
30 -43 40 5 0
30 44 -37 0
30 44 -45 0
30 -44 45 37 0
1 44 0
30 45 -31 0
30 45 -46 0
30 -45 46 31 0
30 46 -47 0
30 46 -48 0
30 -46 48 47 0
30 -47 11 0
30 -47 128 0
30 47 -128 -11 0
30 -48 28 0
30 -48 129 0
30 48 -129 -28 0
30 49 -14 0
30 49 -50 0
30 -49 50 14 0
1 49 0
30 50 -51 0
30 50 -52 0
30 -50 52 51 0
30 -51 21 0
30 -51 126 0
30 51 -126 -21 0
30 52 -23 0
30 52 -53 0
30 -52 53 23 0
30 -53 17 0
30 -53 128 0
30 53 -128 -17 0
30 54 -27 0
30 54 -55 0
30 -54 55 27 0
1 54 0
30 55 -5 0
30 55 -56 0
30 -55 56 5 0
30 56 -10 0
30 56 -47 0
30 -56 47 10 0
30 57 -14 0
30 57 -58 0
30 -57 58 14 0
1 57 0
30 58 -16 0
30 58 -52 0
30 -58 52 16 0
30 59 -37 0
30 59 -60 0
30 -59 60 37 0
1 59 0
30 60 -31 0
30 60 -61 0
30 -60 61 31 0
30 61 -47 0
30 61 -62 0
30 -61 62 47 0
30 -62 63 0
30 -62 129 0
30 62 -129 -63 0
30 -63 -103 0
30 -63 64 0
30 63 -64 103 0
30 64 104 0
30 64 -76 0
30 -64 76 -104 0
30 65 -34 0
30 65 -66 0
30 -65 66 34 0
1 65 0
30 66 -51 0
30 66 -67 0
30 -66 67 51 0
30 67 -53 0
30 67 -68 0
30 -67 68 53 0
30 -68 17 0
30 -68 129 0
30 68 -129 -17 0
30 69 -3 0
30 69 -60 0
30 -69 60 3 0
1 69 0
30 70 -27 0
30 70 -60 0
30 -70 60 27 0
1 70 0
30 71 -27 0
30 71 -72 0
30 -71 72 27 0
1 71 0
30 72 -31 0
30 72 -73 0
30 -72 73 31 0
30 73 -41 0
30 73 -47 0
30 -73 47 41 0
30 -74 0
30 77 124 0
30 77 -78 0
30 -77 78 -124 0
30 77 0
30 -78 -103 0
30 -78 -104 0
30 78 104 103 0
30 79 126 0
30 79 -80 0
30 -79 80 -126 0
30 79 0
30 -80 -103 0
30 -80 81 0
30 80 -81 103 0
30 -81 -104 0
30 -81 82 0
30 81 -82 104 0
30 -82 -105 0
30 -82 -106 0
30 82 106 105 0
30 83 -80 0
30 83 128 0
30 -83 -128 80 0
30 83 0
30 84 124 0
30 84 -85 0
30 -84 85 -124 0
30 84 0
30 -85 86 0
30 -85 89 0
30 85 -89 -86 0
30 86 -87 0
30 86 -88 0
30 -86 88 87 0
30 -87 -106 0
30 -87 105 0
30 87 -105 106 0
30 -88 -105 0
30 -88 106 0
30 88 -106 105 0
30 -89 90 0
30 -89 93 0
30 89 -93 -90 0
30 90 -91 0
30 90 -92 0
30 -90 92 91 0
30 -91 -108 0
30 -91 107 0
30 91 -107 108 0
30 -92 -107 0
30 -92 108 0
30 92 -108 107 0
30 93 -94 0
30 93 -95 0
30 -93 95 94 0
30 -94 -110 0
30 -94 109 0
30 94 -109 110 0
30 -95 -109 0
30 -95 110 0
30 95 -110 109 0
30 96 126 0
30 96 -89 0
30 -96 89 -126 0
30 96 0
30 97 128 0
30 97 -89 0
30 -97 89 -128 0
30 97 0
30 98 129 0
30 98 -99 0
30 -98 99 -129 0
30 98 0
30 -99 85 0
30 -99 100 0
30 99 -100 -85 0
30 100 -101 0
30 100 -102 0
30 -100 102 101 0
30 -101 -104 0
30 -101 103 0
30 101 -103 104 0
30 -102 -103 0
30 -102 104 0
30 102 -104 103 0
30 111 -112 0
30 111 -115 0
30 -111 115 112 0
30 111 0
30 -112 -126 0
30 -112 113 0
30 112 -113 126 0
30 -113 -128 0
30 -113 114 0
30 113 -114 128 0
30 -114 -129 0
30 -114 124 0
30 114 -124 129 0
30 115 -116 0
30 115 -119 0
30 -115 119 116 0
30 -116 -124 0
30 -116 117 0
30 116 -117 124 0
30 -117 -128 0
30 -117 118 0
30 117 -118 128 0
30 -118 -129 0
30 -118 126 0
30 118 -126 129 0
30 119 -120 0
30 119 -123 0
30 -119 123 120 0
30 -120 -124 0
30 -120 121 0
30 120 -121 124 0
30 -121 -126 0
30 -121 122 0
30 121 -122 126 0
30 -122 -129 0
30 -122 128 0
30 122 -128 129 0
30 -123 -124 0
30 -123 125 0
30 123 -125 124 0
30 -125 -126 0
30 -125 127 0
30 125 -127 126 0
30 -127 -128 0
30 -127 129 0
30 127 -129 128 0
